<instance format="XCSP3" type="CSP">
  <variables>
    <var id="x0"> 2 8 11 13 </var>
    <var id="x1"> 2 5 13 </var>
    <var id="x2"> 5 7 13 </var>
    <var id="x3"> 5 7 13 </var>
    <var id="x4"> 2 7 8 11 13 </var>
    <var id="x5"> 5 7 13 </var>
    <var id="x6"> 5 7..9 </var>
    <var id="x7"> 2 5 13 </var>
    <var id="x8"> 2 3 </var>
    <var id="x9"> 3 5 7 13 </var>
    <var id="x10"> 0 2 3 5 7 </var>
    <var id="x11"> 2 13 14 </var>
    <var id="x12"> 0 3 5 7 13 </var>
    <var id="x13"> 0 2 3 5 13 14 </var>
    <var id="x14"> 2 5 10 12 13 </var>
    <var id="x15"> 3 5 10 12..14 </var>
    <var id="x16"> 2 3 13 </var>
    <var id="x17"> 2 12..14 </var>
    <var id="x18"> 2 3 5 13 14 </var>
    <var id="x19"> 5 12 14 </var>
    <var id="x20"> 5 10 12 </var>
    <var id="x21"> 2 8 12 13 </var>
    <var id="x22"> 12 13 </var>
    <var id="x23"> 1 12 13 </var>
    <var id="x24"> 2 8 9 </var>
    <var id="x25"> 1 2 9 12 13 </var>
    <var id="x26"> 6 12 13 </var>
    <var id="x27"> 9 12 </var>
    <var id="x28"> 4 5 8 10 12 13 </var>
    <var id="x29"> 5 10 12 13 </var>
    <var id="x30"> 4 6 8 12 </var>
    <var id="x31"> 8 10 12 13 </var>
    <var id="x32"> 5 6 12 13 </var>
    <var id="x33"> 5 12 </var>
    <var id="x34"> 4 5 8 10 12 </var>
    <var id="x35"> 0 3 4 11 </var>
    <var id="x36"> 1 3 10 12 </var>
    <var id="x37"> 3 4 12 </var>
    <var id="x38"> 0 3 12 </var>
    <var id="x39"> 1 10..12 </var>
    <var id="x40"> 1 11 12 </var>
    <var id="x41"> 0 3 12 </var>
    <var id="x42"> 0 8 11 </var>
    <var id="x43"> 1 5 </var>
    <var id="x44"> 8 </var>
    <var id="x45"> 0 8 14 </var>
    <var id="x46"> 7 8 11 </var>
    <var id="x47"> 1 8 11 </var>
    <var id="x48"> 5 7 8 </var>
    <var id="x49"> 0 2 3 8 </var>
    <var id="x50"> 3 5 12 </var>
    <var id="x51"> 2 3 8 9 12 </var>
    <var id="x52"> 0 2 3 8 12 </var>
    <var id="x53"> 2 9 12 </var>
    <var id="x54"> 0 2 3 5 </var>
    <var id="x55"> 0 5 9 12 </var>
    <var id="x56"> 2 5 8 12 13 </var>
    <var id="x57"> 2 3 8 13 </var>
    <var id="x58"> 2 3 5 12 13 </var>
    <var id="x59"> 3 5 12 13 </var>
    <var id="x60"> 8 9 12 13 </var>
    <var id="x61"> 3 5 12 13 </var>
    <var id="x62"> 5 8 9 12 </var>
    <var id="x63"> 3 8 11 13 </var>
    <var id="x64"> 3 10 12 13 </var>
    <var id="x65"> 3 8 11 </var>
    <var id="x66"> 3 8 11 13 </var>
    <var id="x67"> 3 6 12 13 </var>
    <var id="x68"> 3 6 13 </var>
    <var id="x69"> 8 10 12 </var>
    <var id="x70"> 2 4 10 12 </var>
    <var id="x71"> 2 3 10 12 </var>
    <var id="x72"> 3 7 10 12 </var>
    <var id="x73"> 0 2 3 12 </var>
    <var id="x74"> 0 2 3 7 </var>
    <var id="x75"> 2 12 </var>
    <var id="x76"> 0 7 12 </var>
    <var id="x77"> 5 7 12 13 </var>
    <var id="x78"> 2 12 13 </var>
    <var id="x79"> 2 5 7 9 11 </var>
    <var id="x80"> 2 7 11 13 </var>
    <var id="x81"> 9 11..13 </var>
    <var id="x82"> 2 9 11..13 </var>
    <var id="x83"> 5 7 9 11 12 </var>
    <var id="x84"> 2 10 12 13 </var>
    <var id="x85"> 2 3 10 12 13 </var>
    <var id="x86"> 3 7 10 12 13 </var>
    <var id="x87"> 0 2 3 7 11 </var>
    <var id="x88"> 2 3 7 11 13 </var>
    <var id="x89"> 10..13 </var>
    <var id="x90"> 0 2 3 13 </var>
    <var id="x91"> 7 10 12 </var>
    <var id="x92"> 3 4 13 </var>
    <var id="x93"> 3 4 9 12 </var>
    <var id="x94"> 3 12..14 </var>
    <var id="x95"> 3 7 9 </var>
    <var id="x96"> 3 4 7 13 </var>
    <var id="x97"> 9 12 13 </var>
    <var id="x98"> 3 13 14 </var>
    <var id="x99"> 3 5 13 14 </var>
    <var id="x100"> 3 4 8 </var>
    <var id="x101"> 1 3 5 13 </var>
    <var id="x102"> 3 8 13 14 </var>
    <var id="x103"> 3 5 8 </var>
    <var id="x104"> 3 5 13 14 </var>
    <var id="x105"> 5 14 </var>
  </variables>
  <constraints>
    <group>
      <allDifferent> %... </allDifferent>
      <args> x0 x1 x2 x3 x4 x5 x6 </args>
      <args> x7 x8 x9 x10 x11 x12 x13 </args>
      <args> x14 x15 x16 x17 x18 x19 x20 </args>
      <args> x21 x22 x23 x24 x25 x26 x27 </args>
      <args> x28 x29 x30 x31 x32 x33 x34 </args>
      <args> x35 x36 x37 x38 x39 x40 x41 </args>
      <args> x42 x43 x44 x45 x46 x47 x48 </args>
      <args> x49 x50 x51 x52 x53 x54 x55 </args>
      <args> x56 x57 x58 x59 x60 x61 x62 </args>
      <args> x63 x64 x65 x66 x67 x68 x69 </args>
      <args> x70 x71 x72 x73 x74 x75 x76 </args>
      <args> x77 x78 x79 x80 x81 x82 x83 </args>
      <args> x84 x85 x86 x87 x88 x89 x90 x91 </args>
      <args> x92 x93 x94 x95 x96 x97 x98 </args>
      <args> x99 x100 x101 x102 x103 x104 x105 </args>
      <args> x7 x14 x21 x28 x56 x70 x84 </args>
      <args> x0 x35 x42 x49 x57 x63 x92 </args>
      <args> x1 x29 x36 x43 x58 x71 x85 </args>
      <args> x2 x15 x22 x50 x59 x72 x99 </args>
      <args> x8 x30 x37 x44 x51 x93 x100 </args>
      <args> x3 x9 x23 x64 x77 x86 x101 </args>
      <args> x38 x45 x52 x73 x78 x94 x102 </args>
      <args> x10 x24 x65 x74 x79 x87 x95 x103 </args>
      <args> x4 x16 x46 x66 x80 x88 x96 </args>
      <args> x31 x39 x47 x60 x81 x89 x97 </args>
      <args> x11 x17 x25 x40 x53 x75 x82 </args>
      <args> x5 x12 x26 x32 x41 x61 x67 </args>
      <args> x13 x18 x54 x68 x90 x98 x104 </args>
      <args> x19 x27 x33 x55 x76 x83 x105 </args>
      <args> x6 x20 x34 x48 x62 x69 x91 </args>
    </group>
  </constraints>
</instance>

